certificates/rado_a14_c160_N49.drat
-41 -43 -49 0
-43 -49 0
d -41 -43 -49 0
11 12 43 0
12 13 43 0
-47 43 0
14 43 0
-49 0
43 0
-9 0
15 0
-11 -3 0
47 0
12 11 0
d 11 12 43 0
11 0
-5 0
-17 0
-14 0
-41 0
-37 0
-21 0
-3 0
39 0
12 0
10 0
13 0
48 0
45 0
0
